c WARNING: for repeatability, setting FPU to use double precision
d VARIABLES            71486        
d CONSTRAINTS          290003       
c ============================[ Problem Statistics ]=============================
c |                                                                             |
c |  Number of variables:         71486                                         |
c |  Number of clauses:          290003                                         |
c |  Parse time:                   0.04 s                                       |
c |                                                                             |
c ============================[ Search Statistics ]==============================
c | Conflicts |          ORIGINAL         |          LEARNT          | Progress |
c |           |    Vars  Clauses Literals |    Limit  Clauses Lit/Cl |          |
c ===============================================================================
c |       100 |   53433   243961   595129 |    89452      100     24 | 25.254 % |
c |       250 |   53433   243961   595129 |    98397      250     32 | 25.254 % |
c |       475 |   53433   243961   595129 |   108237      475     81 | 25.254 % |
c |       812 |   53433   243961   595129 |   119061      812     97 | 25.254 % |
c |      1318 |   53433   243961   595129 |   130967     1318    107 | 25.254 % |
c |      2077 |   53433   243961   595129 |   144063     2077     99 | 25.254 % |
c |      3216 |   53433   243961   595129 |   158470     3216    100 | 25.254 % |
c |      4924 |   53433   243961   595129 |   174317     4924     88 | 25.254 % |
c |      7486 |   53433   243961   595129 |   191749     7486     96 | 25.254 % |
c |     11330 |   53433   243961   595129 |   210924    11330     96 | 25.254 % |
c |     17096 |   53433   243961   595129 |   232016    17096     88 | 25.254 % |
c |     25745 |   53433   243961   595129 |   255218    25745    113 | 25.254 % |
c |     38719 |   53433   243961   595129 |   280739    38719    119 | 25.254 % |
c |     58180 |   53433   243961   595129 |   308813    58180    137 | 25.254 % |
c |     87372 |   53433   243961   595129 |   339695    87372    149 | 25.254 % |
c |    131161 |   53433   243961   595129 |   373664   131161    160 | 25.254 % |
c |    196845 |   53433   243961   595129 |   411031   196845    164 | 25.254 % |
c |    295371 |   53433   243961   595129 |   452134   295371    164 | 25.254 % |
c |    443160 |   53433   243961   595129 |   497347   443160    162 | 25.254 % |
c |    664843 |   53433   243961   595129 |   547082   171563    189 | 25.254 % |
c |    997368 |   53433   243961   595129 |   601790   504088    174 | 25.254 % |
c |   1496156 |   53433   243961   595129 |   661969   392076    178 | 25.254 % |
c |   2244338 |   53433   243961   595129 |   728166   480991    195 | 25.254 % |
c |   3366612 |   53433   243961   595129 |   800983   171177    146 | 25.254 % |
c ===============================================================================
c restarts              : 6142
c conflicts             : 3535977        (1973 /sec)
c decisions             : 9352672        (0.00 % random) (5219 /sec)
c propagations          : 3460075760     (1930889 /sec)
c conflict literals     : 702083423      (28.02 % deleted)
d RESTARTS             6142
d FAILURES             3535977      
d NODES                9352672      
d BACKTRACKS           9352672      
d PROPAGATIONS         3460075760   
d NOGOODSIZE           198.55 
d MEMORY               1039.00 
d TIME                 1791.96 

s UNKNOWN
